data/CVRPLIB/Vrp-Set-XML100/instances/XML100_1311_12.vrp
NAME : XML100_1311_12
COMMENT : Generated by Queiroga, Sadykov, Uchoa, and Vidal (2021)
TYPE : CVRP
DIMENSION : 101
EDGE_WEIGHT_TYPE : EUC_2D
CAPACITY : 3
NODE_COORD_SECTION
1    753  120 
2    33   629 
3    803  74  
4    109  828 
5    112  949 
6    369  919 
7    263  545 
8    971  954 
9    220  527 
10   451  499 
11   152  972 
12   792  237 
13   671  896 
14   688  332 
15   125  522 
16   819  197 
17   165  974 
18   782  97  
19   261  515 
20   196  487 
21   200  664 
22   130  862 
23   945  984 
24   806  725 
25   323  528 
26   722  979 
27   962  646 
28   443  501 
29   246  548 
30   197  858 
31   307  873 
32   584  493 
33   878  946 
34   24   493 
35   971  859 
36   63   993 
37   289  609 
38   551  271 
39   321  333 
40   540  631 
41   285  876 
42   355  892 
43   740  802 
44   899  856 
45   291  985 
46   952  818 
47   737  845 
48   753  888 
49   440  929 
50   394  995 
51   673  250 
52   850  686 
53   127  954 
54   502  499 
55   310  864 
56   506  114 
57   454  842 
58   204  582 
59   933  531 
60   171  791 
61   931  969 
62   184  269 
63   174  110 
64   225  554 
65   34   707 
66   758  305 
67   865  468 
68   152  873 
69   172  661 
70   352  981 
71   485  817 
72   335  836 
73   287  374 
74   304  576 
75   680  912 
76   313  519 
77   505  439 
78   836  294 
79   949  992 
80   372  728 
81   634  157 
82   605  42  
83   601  921 
84   897  708 
85   209  671 
86   352  938 
87   464  984 
88   669  582 
89   8    866 
90   73   919 
91   269  508 
92   357  858 
93   433  826 
94   624  998 
95   858  654 
96   994  865 
97   317  125 
98   311  828 
99   462  289 
100  801  933 
101  142  637 
DEMAND_SECTION
1    0   
2    1   
3    1   
4    1   
5    1   
6    1   
7    1   
8    1   
9    1   
10   1   
11   1   
12   1   
13   1   
14   1   
15   1   
16   1   
17   1   
18   1   
19   1   
20   1   
21   1   
22   1   
23   1   
24   1   
25   1   
26   1   
27   1   
28   1   
29   1   
30   1   
31   1   
32   1   
33   1   
34   1   
35   1   
36   1   
37   1   
38   1   
39   1   
40   1   
41   1   
42   1   
43   1   
44   1   
45   1   
46   1   
47   1   
48   1   
49   1   
50   1   
51   1   
52   1   
53   1   
54   1   
55   1   
56   1   
57   1   
58   1   
59   1   
60   1   
61   1   
62   1   
63   1   
64   1   
65   1   
66   1   
67   1   
68   1   
69   1   
70   1   
71   1   
72   1   
73   1   
74   1   
75   1   
76   1   
77   1   
78   1   
79   1   
80   1   
81   1   
82   1   
83   1   
84   1   
85   1   
86   1   
87   1   
88   1   
89   1   
90   1   
91   1   
92   1   
93   1   
94   1   
95   1   
96   1   
97   1   
98   1   
99   1   
100  1   
101  1   
DEPOT_SECTION
1
-1
EOF
