data/CVRPLIB/Vrp-Set-XML100/solutions/XML100_1311_12.sol
Route #1: 70 56 92
Route #2: 79 97 71
Route #3: 59 3 88
Route #4: 84 20 68
Route #5: 81 55 80
Route #6: 32 60 43
Route #7: 38 72 98
Route #8: 4 35 89
Route #9: 2 17
Route #10: 52 10 16
Route #11: 12 93 82
Route #12: 44 69 85
Route #13: 63 57 8
Route #14: 7 78 22
Route #15: 86 49 48
Route #16: 11 15
Route #17: 100 64 1
Route #18: 95 34 45
Route #19: 87 39 31
Route #20: 47 46 42
Route #21: 33 14 19
Route #22: 73 36 6
Route #23: 37 13 50
Route #24: 27 24 75
Route #25: 58 26 83
Route #26: 61 62 96
Route #27: 21 67 29
Route #28: 23 51 94
Route #29: 40 30 54
Route #30: 99 25 74
Route #31: 5 41 91
Route #32: 65 66 77
Route #33: 28 18 90
Route #34: 53 9 76
Cost 49423
